50 1595

28 18
82 72
39 29
104 94
102 92
103 93
43 33
82 72
65 55
18 8
42 32
26 16
92 82
95 85
65 55
37 27
98 88
15 5
18 8
77 67
43 33
60 50
65 55
23 13
106 96
46 36
89 79
51 41
61 51
71 61
44 34
56 46
100 90
91 81
84 74
91 81
93 83
57 47
41 31
96 86
107 97
46 36
96 86
27 17
82 72
40 30
92 82
27 17
59 49
16 6
